

#This script contains the DEM-part of Lauras fludised bed


#-------variables---------------------------------------------------------------------------------------------------------------------------------------------------#
#-------Simulation Parameters---------------------------------------------------------------------------------------------------------------------------------------#



	variable dt	 			equal 5e-6					# timestep 				[sec]
	variable t_sim			equal 10 					# time of simulation 			[sec]
	variable t_set			equal 0.5						# time to initialise the simulation 	[sec]

	variable st_sim			equal ${t_sim}/${dt}		# steps of simulation 			[]
	variable st_set			equal ${t_set}/${dt}		# steps to initialise the simulation 	[]

	variable dump_rate 		equal 0.005/${dt}				# rate of writing dump files 		[]
	variable skin 			equal 4e-3					# contact parameter			[m]
	variable grav			equal 9.81					# gravitation				[m/s]



#-------Particle Properties-----------------------------------------------------------------------------------------------------------------------------------------#

	variable youngmod 		equal 1e7					# E-Modul				[Pa]
	variable poiss 			equal 0.3					# Poisson Ratio				[]
	variable cor 			equal 0.2					# Coefficent of Restitution		[]
	variable ff 			equal 0.7					# Particle Sliding Friction		[]
	variable wallfricW 		equal 0.465					# Particle Wall Friction		[]
	variable frf 			equal 0.3					# Particle Rolling Friction		[]

	variable dens 			equal 2000 					# Particle Density kg/m3



	variable	radius1	equal	0.002	#m
	variable	radius2	equal	0.0015	#m
	variable	radius3	equal	0.0012	#m

#####################################################################################################################################################################
#-------Simulation--------------------------------------------------------------------------------------------------------------------------------------------------#
#####################################################################################################################################################################

	atom_style	granular
	atom_modify	map array
	boundary	f f f
	newton		off

	communicate	single vel yes
	units	si

	region		reg 		block -0.3 0.3 -0.3 0.3 -0.1 1 units box
	create_box	2 reg

	neighbor	0.001 bin
	neigh_modify	delay 0


	fix 		m1 all property/global youngsModulus peratomtype 				${youngmod} ${youngmod} 
	fix 		m2 all property/global poissonsRatio peratomtype 				${poiss} ${poiss} 
	fix 		m3 all property/global coefficientRestitution peratomtypepair  2		${cor} ${cor} ${cor} ${cor}  
	fix 		m4 all property/global coefficientFriction peratomtypepair 2 			${ff}  ${wallfricW} ${wallfricW} 0 			
	fix 		m5 all property/global coefficientRollingFriction peratomtypepair 2 		${ff}  ${wallfricW} ${wallfricW} 0
	fix 		m6 all property/global cohesionEnergyDensity peratomtypepair 2 	    		0	    0  0     0
	
               

	#New pair style Hertzian  contact model with rolling friction and cohesion (Cohesion between Particle-Particle)	
	pair_style 	gran model hertz tangential history cohesion sjkr rolling_friction epsd2 		
	pair_coeff	* *

	timestep	${dt}
	fix		gravi all gravity ${grav} vector 0.0 0.0 -1.0


	# Defining the walls that can be in contact with the particles; those come from the STL folder
	fix		cylinder 	all mesh/surface/stress file STL/cylinder.stl type 			2  element_exclusion_list read ex1.txt curvature_tolerant yes  
	fix		outlet 		all mesh/surface/stress file STL/inlet.stl type 			2  element_exclusion_list read ex4.txt curvature_tolerant yes 	
	fix		inface    	all mesh/surface/stress file STL/outlet.stl type  			2  element_exclusion_list read ex3.txt curvature_tolerant yes 
	
	# The wall contacts are only allowed at the box walls
	fix		wall all wall/gran model hertz tangential history cohesion off rolling_friction epsd2 mesh n_meshes 3 meshes cylinder  outlet inface


	# count time during simulation
	variable t 	equal step*dt


	# Particle grain size distribution 

	fix		pts1 all particletemplate/sphere 10487 		atom_type 1 density constant ${dens} radius constant ${radius1}	
	fix		pts2 all particletemplate/sphere 11887 		atom_type 1 density constant ${dens} radius constant ${radius2}	
	fix		pts3 all particletemplate/sphere 67867967 	atom_type 1 density constant ${dens} radius constant ${radius3}




	#32452843, 32452867, 49979687, 49979693, 67867967, 67867979, 86028121, 86028157 
	fix		pdd1 all particledistribution/discrete 15485867  3  pts3 1/2 pts2 1/3 pts1 1/6 

	#region for insertion
	group		nve_group region reg
	

	#particle insertion
	fix		ins nve_group insert/stream seed 15485863 distributiontemplate pdd1 maxattempt 100 mass 1.5 massrate 100 overlapcheck yes vel constant 0 0 -1 insertion_face inface extrude_length 0.25


	#apply nve integration to all particles that are inserted as single particles
	fix		integr nve_group nve/sphere


	
#####################################################################################################################################################################
#-------Computational Properties------------------------------------------------------------------------------------------------------------------------------------#
#####################################################################################################################################################################

	#output settings, include total thermal energy
	fix		ts all check/timestep/gran 1000 0.1 0.1
	compute		rke all erotate/sphere
	thermo_style	custom step atoms ke c_rke f_ts[1] f_ts[2] vol
	thermo		1000
	thermo_modify	lost ignore norm no
	compute_modify	thermo_temp dynamic yes
	#fix		ts_check all check/timestep/gran ${dump_rate}*10 0.001 0.001



#####################################################################################################################################################################
#-------Run the Simulation------------------------------------------------------------------------------------------------------------------------------------------#
#####################################################################################################################################################################

	shell   	mkdir post
	shell		mkdir postProcessing

	dump		dmp all custom ${dump_rate} post/insert*.liggghts id type type x y z ix iy iz vx vy vz fx fy fz omegax omegay omegaz radius mass 





	# run the settling of particles and then begin with the actual simulation with CFD
	run 		${st_set}	

	unfix ins
	undump          dmp
	dump		    dmp2 all custom ${dump_rate} post/dump*.liggghts id type type x y z ix iy iz vx vy vz fx fy fz omegax omegay omegaz radius mass 
	#dump			ddmpvtk 	all custom/vtk ${dump_rate} post/particles_*.vtk id type x y z vx vy vz fx fy fz radius mass

	
################
	fix     	cfd 	all couple/cfd couple_every 10 mpi #50
	fix     	cfd2 	all couple/cfd/force

	run 0 #<------Wichtig, um fix cfd und fix cfd2 zu aktivieren
#################

